c colouring generated by benchmark framework
p edge 161 295
v 1 2
v 2 1
v 3 1
v 4 2
v 5 1
v 6 2
v 7 1
v 8 2
v 9 0
v 10 1
v 11 2
v 12 2
v 13 0
v 14 0
v 15 2
v 16 2
v 17 2
v 18 1
v 19 0
v 20 2
v 21 1
v 22 0
v 23 0
v 24 1
v 25 2
v 26 2
v 27 1
v 28 1
v 29 2
v 30 0
v 31 2
v 32 0
v 33 2
v 34 1
v 35 0
v 36 1
v 37 2
v 38 1
v 39 0
v 40 1
v 41 1
v 42 2
v 43 2
v 44 1
v 45 0
v 46 1
v 47 2
v 48 2
v 49 1
v 50 2
v 51 2
v 52 0
v 53 1
v 54 2
v 55 0
v 56 2
v 57 0
v 58 0
v 59 0
v 60 0
v 61 2
v 62 0
v 63 1
v 64 1
v 65 2
v 66 1
v 67 0
v 68 0
v 69 2
v 70 2
v 71 1
v 72 0
v 73 0
v 74 1
v 75 2
v 76 1
v 77 0
v 78 2
v 79 2
v 80 2
v 81 0
v 82 1
v 83 1
v 84 1
v 85 1
v 86 1
v 87 1
v 88 2
v 89 0
v 90 1
v 91 1
v 92 0
v 93 0
v 94 2
v 95 0
v 96 0
v 97 2
v 98 0
v 99 1
v 100 0
v 101 2
v 102 1
v 103 1
v 104 1
v 105 0
v 106 1
v 107 1
v 108 0
v 109 0
v 110 0
v 111 1
v 112 2
v 113 1
v 114 2
v 115 0
v 116 1
v 117 0
v 118 2
v 119 0
v 120 2
v 121 2
v 122 2
v 123 2
v 124 0
v 125 2
v 126 1
v 127 1
v 128 2
v 129 2
v 130 1
v 131 0
v 132 0
v 133 0
v 134 2
v 135 0
v 136 2
v 137 1
v 138 0
v 139 0
v 140 2
v 141 0
v 142 1
v 143 1
v 144 2
v 145 0
v 146 2
v 147 0
v 148 2
v 149 1
v 150 1
v 151 2
v 152 0
v 153 0
v 154 2
v 155 0
v 156 0
v 157 0
v 158 1
v 159 1
v 160 0
v 161 0
